MSW05
Position Depot: Random
Horizon for Depot: Small
Position of customers: Mixt
Distribution of the demand: Large
Width of time windows: Wide
Distribution of the service: Large

VEHICLE 
NUMBER 	 CAPACITY 
 5 	 	 802 
 
CUSTOMER
CUST NO. 	 XCOORD.  	 YCOORD. 	 DEMAND 	 READY TIME 	 DUE DATE 	 SERVICE TIME 
 0 	 	 671 	 	 11 	 	 0 	 	 0 	 	 2155 	 	 0 
  1 	 	 530 	 	 671 	 	 16 	 	 324 	 	 742 	 	 161 
  2 	 	 303 	 	 966 	 	 19 	 	 898 	 	 1212 	 	 138 
  3 	 	 798 	 	 393 	 	 49 	 	 552 	 	 872 	 	 119 
  4 	 	 388 	 	 385 	 	 77 	 	 317 	 	 615 	 	 143 
  5 	 	 591 	 	 705 	 	 76 	 	 293 	 	 768 	 	 179 
  6 	 	 526 	 	 682 	 	 75 	 	 1726 	 	 1947 	 	 181 
  7 	 	 329 	 	 446 	 	 88 	 	 550 	 	 890 	 	 200 
  8 	 	 206 	 	 453 	 	 62 	 	 1049 	 	 1539 	 	 167 
  9 	 	 995 	 	 407 	 	 87 	 	 1594 	 	 1907 	 	 165 
  10 	 	 755 	 	 210 	 	 24 	 	 1231 	 	 1513 	 	 142 
  11 	 	 275 	 	 976 	 	 5 	 	 890 	 	 1147 	 	 149 
  12 	 	 620 	 	 775 	 	 41 	 	 1848 	 	 2053 	 	 154 
  13 	 	 361 	 	 456 	 	 7 	 	 260 	 	 641 	 	 171 
  14 	 	 524 	 	 642 	 	 65 	 	 426 	 	 712 	 	 176 
  15 	 	 806 	 	 352 	 	 43 	 	 -45 	 	 403 	 	 135 
  16 	 	 918 	 	 299 	 	 49 	 	 1498 	 	 1825 	 	 107 
  17 	 	 868 	 	 487 	 	 71 	 	 384 	 	 881 	 	 141 
  18 	 	 899 	 	 372 	 	 21 	 	 691 	 	 927 	 	 143 
  19 	 	 887 	 	 227 	 	 28 	 	 -121 	 	 336 	 	 155 
  20 	 	 811 	 	 455 	 	 94 	 	 1299 	 	 1522 	 	 126 
  21 	 	 315 	 	 947 	 	 65 	 	 875 	 	 1101 	 	 105 
  22 	 	 552 	 	 646 	 	 22 	 	 1352 	 	 1759 	 	 140 
  23 	 	 514 	 	 634 	 	 92 	 	 320 	 	 706 	 	 112 
  24 	 	 284 	 	 56 	 	 55 	 	 1332 	 	 1610 	 	 191 
  25 	 	 711 	 	 427 	 	 52 	 	 1837 	 	 2075 	 	 126 
  26 	 	 826 	 	 415 	 	 50 	 	 886 	 	 1376 	 	 180 
  27 	 	 394 	 	 419 	 	 61 	 	 1532 	 	 1795 	 	 137 
  28 	 	 734 	 	 494 	 	 36 	 	 852 	 	 1211 	 	 140 
  29 	 	 496 	 	 396 	 	 69 	 	 181 	 	 465 	 	 175 
  30 	 	 784 	 	 383 	 	 29 	 	 1283 	 	 1762 	 	 174 
  31 	 	 865 	 	 390 	 	 36 	 	 75 	 	 468 	 	 168 
  32 	 	 277 	 	 976 	 	 87 	 	 692 	 	 1146 	 	 153 
  33 	 	 166 	 	 953 	 	 23 	 	 889 	 	 1175 	 	 198 
  34 	 	 227 	 	 640 	 	 59 	 	 822 	 	 1126 	 	 158 
  35 	 	 802 	 	 406 	 	 27 	 	 310 	 	 769 	 	 196 
  36 	 	 372 	 	 460 	 	 31 	 	 1829 	 	 2029 	 	 106 
  37 	 	 375 	 	 946 	 	 65 	 	 1650 	 	 1953 	 	 176 
  38 	 	 798 	 	 407 	 	 35 	 	 1300 	 	 1758 	 	 109 
  39 	 	 849 	 	 417 	 	 63 	 	 588 	 	 948 	 	 115 
  40 	 	 288 	 	 945 	 	 32 	 	 1151 	 	 1574 	 	 121 
  41 	 	 599 	 	 654 	 	 31 	 	 1902 	 	 2155 	 	 137 
  42 	 	 791 	 	 402 	 	 16 	 	 485 	 	 978 	 	 136 
  43 	 	 246 	 	 939 	 	 88 	 	 736 	 	 1122 	 	 110 
  44 	 	 308 	 	 993 	 	 36 	 	 872 	 	 1306 	 	 192 
  45 	 	 667 	 	 693 	 	 26 	 	 310 	 	 750 	 	 100 
  46 	 	 743 	 	 421 	 	 46 	 	 254 	 	 457 	 	 183 
  47 	 	 779 	 	 364 	 	 68 	 	 1399 	 	 1741 	 	 114 
  48 	 	 396 	 	 342 	 	 55 	 	 680 	 	 1178 	 	 117 
  49 	 	 736 	 	 403 	 	 5 	 	 250 	 	 600 	 	 109 
  50 	 	 405 	 	 483 	 	 62 	 	 1867 	 	 2152 	 	 136 
  51 	 	 649 	 	 601 	 	 89 	 	 1034 	 	 1259 	 	 164 
  52 	 	 649 	 	 58 	 	 22 	 	 294 	 	 757 	 	 141 
  53 	 	 185 	 	 695 	 	 64 	 	 551 	 	 922 	 	 120 
  54 	 	 474 	 	 834 	 	 35 	 	 897 	 	 1298 	 	 162 
  55 	 	 659 	 	 286 	 	 95 	 	 367 	 	 837 	 	 146 
  56 	 	 564 	 	 176 	 	 47 	 	 -66 	 	 234 	 	 124 
  57 	 	 90 	 	 989 	 	 6 	 	 1033 	 	 1251 	 	 118 
  58 	 	 953 	 	 459 	 	 84 	 	 1003 	 	 1447 	 	 177 
  59 	 	 263 	 	 990 	 	 4 	 	 716 	 	 1166 	 	 199 
  60 	 	 52 	 	 411 	 	 32 	 	 1836 	 	 2155 	 	 140 
  61 	 	 656 	 	 896 	 	 87 	 	 984 	 	 1251 	 	 184 
  62 	 	 652 	 	 293 	 	 16 	 	 -129 	 	 310 	 	 190 
  63 	 	 899 	 	 373 	 	 87 	 	 1607 	 	 1858 	 	 148 
  64 	 	 129 	 	 504 	 	 34 	 	 425 	 	 871 	 	 193 
  65 	 	 102 	 	 759 	 	 13 	 	 1471 	 	 1741 	 	 144 
  66 	 	 454 	 	 355 	 	 12 	 	 1100 	 	 1545 	 	 162 
  67 	 	 757 	 	 108 	 	 12 	 	 1357 	 	 1793 	 	 176 
  68 	 	 235 	 	 478 	 	 77 	 	 829 	 	 1041 	 	 153 
  69 	 	 964 	 	 199 	 	 18 	 	 1729 	 	 1966 	 	 145 
  70 	 	 3 	 	 524 	 	 53 	 	 830 	 	 1067 	 	 194 
  71 	 	 510 	 	 110 	 	 58 	 	 1061 	 	 1411 	 	 176 
  72 	 	 214 	 	 933 	 	 8 	 	 834 	 	 1131 	 	 169 
  73 	 	 266 	 	 51 	 	 11 	 	 632 	 	 892 	 	 113 
  74 	 	 840 	 	 247 	 	 38 	 	 1331 	 	 1572 	 	 175 
  75 	 	 188 	 	 11 	 	 92 	 	 293 	 	 558 	 	 152 
  76 	 	 635 	 	 964 	 	 10 	 	 1574 	 	 1956 	 	 196 
  77 	 	 251 	 	 284 	 	 61 	 	 1367 	 	 1600 	 	 200 
  78 	 	 511 	 	 71 	 	 23 	 	 781 	 	 1047 	 	 102 
  79 	 	 174 	 	 942 	 	 91 	 	 1604 	 	 2028 	 	 135 
  80 	 	 328 	 	 716 	 	 3 	 	 480 	 	 862 	 	 179 
  81 	 	 765 	 	 732 	 	 57 	 	 437 	 	 799 	 	 164 
  82 	 	 516 	 	 166 	 	 18 	 	 1270 	 	 1757 	 	 199 
  83 	 	 496 	 	 399 	 	 29 	 	 214 	 	 468 	 	 170 
  84 	 	 319 	 	 647 	 	 82 	 	 587 	 	 957 	 	 132 
  85 	 	 395 	 	 863 	 	 80 	 	 742 	 	 985 	 	 118 
  86 	 	 955 	 	 733 	 	 48 	 	 1918 	 	 2122 	 	 117 
  87 	 	 442 	 	 296 	 	 33 	 	 123 	 	 402 	 	 167 
  88 	 	 130 	 	 926 	 	 54 	 	 859 	 	 1169 	 	 182 
  89 	 	 413 	 	 607 	 	 14 	 	 333 	 	 714 	 	 191 
  90 	 	 540 	 	 720 	 	 63 	 	 302 	 	 793 	 	 153 
  91 	 	 652 	 	 776 	 	 16 	 	 992 	 	 1455 	 	 116 
  92 	 	 331 	 	 171 	 	 20 	 	 1397 	 	 1856 	 	 189 
  93 	 	 214 	 	 172 	 	 75 	 	 1289 	 	 1556 	 	 162 
  94 	 	 2 	 	 616 	 	 32 	 	 636 	 	 992 	 	 183 
  95 	 	 663 	 	 778 	 	 21 	 	 413 	 	 843 	 	 151 
  96 	 	 489 	 	 158 	 	 70 	 	 1724 	 	 2138 	 	 145 
  97 	 	 691 	 	 856 	 	 97 	 	 637 	 	 929 	 	 147 
  98 	 	 21 	 	 923 	 	 38 	 	 1013 	 	 1231 	 	 154 
  99 	 	 746 	 	 61 	 	 65 	 	 658 	 	 1076 	 	 121 
  100 	 	 488 	 	 330 	 	 100 	 	 1914 	 	 2155 	 	 117 
 